certificates/rado_a10_c296_N32.cnf
c Rad2 upper bound instance: x1 + 10*x2 - x3 = 296, interval [1,32]
p cnf 32 204
1 5 30 0
-1 -5 -30 0
1 15 31 0
-1 -15 -31 0
1 25 32 0
-1 -25 -32 0
2 6 30 0
-2 -6 -30 0
2 16 31 0
-2 -16 -31 0
2 26 32 0
-2 -26 -32 0
3 7 30 0
-3 -7 -30 0
3 17 31 0
-3 -17 -31 0
3 27 32 0
-3 -27 -32 0
4 8 30 0
-4 -8 -30 0
4 18 31 0
-4 -18 -31 0
4 28 32 0
-4 -28 -32 0
5 9 30 0
-5 -9 -30 0
5 19 31 0
-5 -19 -31 0
5 29 32 0
-5 -29 -32 0
6 10 30 0
-6 -10 -30 0
6 20 31 0
-6 -20 -31 0
6 30 32 0
-6 -30 -32 0
1 7 29 0
-1 -7 -29 0
7 11 30 0
-7 -11 -30 0
7 21 31 0
-7 -21 -31 0
7 31 32 0
-7 -31 -32 0
2 8 29 0
-2 -8 -29 0
8 12 30 0
-8 -12 -30 0
8 22 31 0
-8 -22 -31 0
8 32 0
-8 -32 0
3 9 29 0
-3 -9 -29 0
9 13 30 0
-9 -13 -30 0
9 23 31 0
-9 -23 -31 0
4 10 29 0
-4 -10 -29 0
10 14 30 0
-10 -14 -30 0
10 24 31 0
-10 -24 -31 0
5 11 29 0
-5 -11 -29 0
11 15 30 0
-11 -15 -30 0
11 25 31 0
-11 -25 -31 0
6 12 29 0
-6 -12 -29 0
12 16 30 0
-12 -16 -30 0
12 26 31 0
-12 -26 -31 0
7 13 29 0
-7 -13 -29 0
13 17 30 0
-13 -17 -30 0
13 27 31 0
-13 -27 -31 0
8 14 29 0
-8 -14 -29 0
14 18 30 0
-14 -18 -30 0
14 28 31 0
-14 -28 -31 0
9 15 29 0
-9 -15 -29 0
15 19 30 0
-15 -19 -30 0
15 29 31 0
-15 -29 -31 0
10 16 29 0
-10 -16 -29 0
16 20 30 0
-16 -20 -30 0
16 30 31 0
-16 -30 -31 0
1 17 28 0
-1 -17 -28 0
11 17 29 0
-11 -17 -29 0
17 21 30 0
-17 -21 -30 0
17 31 0
-17 -31 0
2 18 28 0
-2 -18 -28 0
12 18 29 0
-12 -18 -29 0
18 22 30 0
-18 -22 -30 0
18 31 32 0
-18 -31 -32 0
3 19 28 0
-3 -19 -28 0
13 19 29 0
-13 -19 -29 0
19 23 30 0
-19 -23 -30 0
4 20 28 0
-4 -20 -28 0
14 20 29 0
-14 -20 -29 0
20 24 30 0
-20 -24 -30 0
5 21 28 0
-5 -21 -28 0
15 21 29 0
-15 -21 -29 0
21 25 30 0
-21 -25 -30 0
6 22 28 0
-6 -22 -28 0
16 22 29 0
-16 -22 -29 0
22 26 30 0
-22 -26 -30 0
7 23 28 0
-7 -23 -28 0
17 23 29 0
-17 -23 -29 0
23 27 30 0
-23 -27 -30 0
8 24 28 0
-8 -24 -28 0
18 24 29 0
-18 -24 -29 0
24 28 30 0
-24 -28 -30 0
9 25 28 0
-9 -25 -28 0
19 25 29 0
-19 -25 -29 0
25 29 30 0
-25 -29 -30 0
10 26 28 0
-10 -26 -28 0
20 26 29 0
-20 -26 -29 0
26 30 0
-26 -30 0
1 27 0
-1 -27 0
11 27 28 0
-11 -27 -28 0
21 27 29 0
-21 -27 -29 0
27 30 31 0
-27 -30 -31 0
2 27 28 0
-2 -27 -28 0
12 28 0
-12 -28 0
22 28 29 0
-22 -28 -29 0
28 30 32 0
-28 -30 -32 0
3 27 29 0
-3 -27 -29 0
13 28 29 0
-13 -28 -29 0
23 29 0
-23 -29 0
4 27 30 0
-4 -27 -30 0
14 28 30 0
-14 -28 -30 0
24 29 30 0
-24 -29 -30 0
5 27 31 0
-5 -27 -31 0
15 28 31 0
-15 -28 -31 0
25 29 31 0
-25 -29 -31 0
6 27 32 0
-6 -27 -32 0
16 28 32 0
-16 -28 -32 0
26 29 32 0
-26 -29 -32 0
