certificates/rado_a10_c296_N32.drat
-30 -31 -32 0
-31 -32 0
d -30 -31 -32 0
30 -32 0
-32 0
8 0
-30 31 0
31 0
-17 0
-22 0
30 0
-26 0
-27 0
-4 0
-12 0
-16 0
2 0
29 0
1 0
3 0
6 0
28 0
0
